10
3
4
0 12 18 30 40 50 60 70 80 90
12 0 10 15 25 35 45 55 65 75
18 10 0 20 30 40 50 60 70 80
30 15 20 0 10 20 30 40 50 60
40 25 30 10 0 10 20 30 40 50
50 35 40 20 10 0 10 20 30 40
60 45 50 30 20 10 0 10 20 30
70 55 60 40 30 20 10 0 10 20
80 65 70 50 40 30 20 10 0 10
90 75 80 60 50 40 30 20 10 0
